(set-info :smt-lib-version 2.6)
(set-info :category "crafted")
(set-logic QF_FF)
(define-sort FF0 () (_ FiniteField 52435875175126190479447740508185965837690552500527637822603658699938581184513))
(declare-fun h () Bool)
(declare-fun g () Bool)
(declare-fun f () Bool)
(declare-fun e () Bool)
(declare-fun d () Bool)
(declare-fun c () Bool)
(declare-fun b () Bool)
(declare-fun a () Bool)
(declare-fun return_n0 () FF0)
(declare-fun h_n5 () FF0)
(declare-fun mul_n14 () FF0)
(declare-fun g_n7 () FF0)
(declare-fun mul_n13 () FF0)
(declare-fun f_n1 () FF0)
(declare-fun mul_n12 () FF0)
(declare-fun mul_n11 () FF0)
(declare-fun d_n3 () FF0)
(declare-fun mul_n10 () FF0)
(declare-fun c_n4 () FF0)
(declare-fun mul_n9 () FF0)
(declare-fun b_n6 () FF0)
(declare-fun a_n8 () FF0)
(declare-fun e_n2 () FF0)
(assert 
  (let ((let0 h))
  (let ((let1 g))
  (let ((let2 f))
  (let ((let3 e))
  (let ((let4 d))
  (let ((let5 c))
  (let ((let6 b))
  (let ((let7 a))
  (let ((let8 (or let7 let6 let5 let4 let3 let2 let1 let0)))
  (let ((let9 return_n0))
  (let ((let10 (as ff1 FF0)))
  (let ((let11 (= let10 let9)))
  (let ((let12 (= let11 let8)))
  (let ((let13 (as ff0 FF0)))
  (let ((let14 (= let13 let9)))
  (let ((let15 (or let11 let14)))
  (let ((let16 (and let15 let12)))
  (let ((let17 (as ff52435875175126190479447740508185965837690552500527637822603658699938581184512 FF0)))
  (let ((let18 (ff.mul let9 let17)))
  (let ((let19 (ff.add let18 let10)))
  (let ((let20 h_n5))
  (let ((let21 (ff.mul let20 let17)))
  (let ((let22 (ff.add let21 let10)))
  (let ((let23 mul_n14))
  (let ((let24 (ff.mul let23 let22)))
  (let ((let25 (= let24 let19)))
  (let ((let26 g_n7))
  (let ((let27 (ff.mul let26 let17)))
  (let ((let28 (ff.add let27 let10)))
  (let ((let29 mul_n13))
  (let ((let30 (ff.mul let29 let28)))
  (let ((let31 (= let30 let23)))
  (let ((let32 f_n1))
  (let ((let33 (ff.mul let32 let17)))
  (let ((let34 (ff.add let33 let10)))
  (let ((let35 mul_n12))
  (let ((let36 (ff.mul let35 let34)))
  (let ((let37 (= let36 let29)))
  (let ((let38 mul_n11))
  (let ((let39 d_n3))
  (let ((let40 (ff.mul let39 let17)))
  (let ((let41 (ff.add let40 let10)))
  (let ((let42 mul_n10))
  (let ((let43 (ff.mul let42 let41)))
  (let ((let44 (= let43 let38)))
  (let ((let45 c_n4))
  (let ((let46 (ff.mul let45 let17)))
  (let ((let47 (ff.add let46 let10)))
  (let ((let48 mul_n9))
  (let ((let49 (ff.mul let48 let47)))
  (let ((let50 (= let49 let42)))
  (let ((let51 b_n6))
  (let ((let52 (ff.mul let51 let17)))
  (let ((let53 (ff.add let52 let10)))
  (let ((let54 a_n8))
  (let ((let55 (ff.mul let54 let17)))
  (let ((let56 (ff.add let55 let10)))
  (let ((let57 (ff.mul let56 let53)))
  (let ((let58 (= let57 let48)))
  (let ((let59 (and let58 let50 let44 let37 let31 let25)))
  (let ((let60 (ite let0 let10 let13)))
  (let ((let61 (= let20 let60)))
  (let ((let62 (ite let4 let10 let13)))
  (let ((let63 (= let39 let62)))
  (let ((let64 (ite let3 let10 let13)))
  (let ((let65 e_n2))
  (let ((let66 (= let65 let64)))
  (let ((let67 (ite let2 let10 let13)))
  (let ((let68 (= let32 let67)))
  (let ((let69 (ite let5 let10 let13)))
  (let ((let70 (= let45 let69)))
  (let ((let71 (ite let7 let10 let13)))
  (let ((let72 (= let54 let71)))
  (let ((let73 (ite let6 let10 let13)))
  (let ((let74 (= let51 let73)))
  (let ((let75 (ite let1 let10 let13)))
  (let ((let76 (= let26 let75)))
  (let ((let77 (and let76 let74 let72 let70 let68 let66 let63 let61)))
  (let ((let78 (and let77 let59)))
  (let ((let79 (=> let78 let16)))
  (let ((let80 (not let79)))
  let80
)))))))))))))))))))))))))))))))))))))))))))))))))))))))))))))))))))))))))))))))))
)
(check-sat)
